benchmarks/conditional_sum/easy.solution
Problem: conditional_sum
Difficulty: easy
Type: DEBUG SOLUTION (Expected)
Status: VERIFIED
Solution: ifelse((x + y) >= 10, x + y, 0)

Verification Result:
    ✓ VERIFIED: All constraints satisfied
Z3 Status: unsat
